Minimize
  - 22 y_0 - 30 y_1 - 25 y_2 - 28 y_3 - 14 y_4 - 15 y_5 - 10 y_6 - 3 y_7
   - 17 y_8 - 20 y_9 - 22 y_10 - 20 y_11 - 19 y_12 - 24 y_13 - 31 y_14
   - 14 y_15 - 16 y_16 - 28 y_17 - 21 y_18 - 17 y_19 - 35 y_20 - 12 y_21
   - 31 y_22 - 17 y_23 - 22 y_24 - 15 y_25 - 13 y_26 - 26 y_27 - 22 y_28
   - 10 y_29 - 23 y_30 - 10 y_31 - 18 y_32 - 9 y_33 - 18 y_34 - 27 y_35
   - 24 y_36 - 23 y_37 - 15 y_38 - 13 y_39 - 29 y_40 - 27 y_41 - 22 y_42
   - 17 y_43 - 15 y_44 - 20 y_45 - 24 y_46 - 10 y_47 - 11 y_48 - 9 y_49
   - 23 y_50 - 20 y_51 - 28 y_52 - 19 y_53 - 26 y_54 - 34 y_56 - 12 y_57
   - 23 y_58 - 18 y_59 - 24 y_60 - 24 y_61 - 14 y_62 - 23 y_63 - 19 y_64
   - 17 y_65 - 25 y_66 - 11 y_67 - 15 y_68 - 34 y_69 - 25 y_70 - 13 y_71
   - 16 y_72 - 26 y_73 - 17 y_74 - 21 y_75 - 34 y_76 - 18 y_77 - 32 y_78
   - 21 y_79 - 24 y_80 - 18 y_81 - 15 y_82 - 27 y_83 - 24 y_84 - 24 y_85
   - 18 y_86 - 15 y_87 - 24 y_88 - 24 y_89 - 18 y_90 - 16 y_91 - 35 y_92
   - 19 y_93 - 8 y_94 - 21 y_95 - 32 y_96 - 28 y_97 - 18 y_98 - 8 y_99
   + 2011 Constant
Subject To
 c_0: y_59 = 1
 c_1_0: y_0 >= 1
 c_1_1: y_1 >= 1
 c_1_2: y_2 >= 1
 c_1_3: y_3 >= 1
 c_1_4: y_4 >= 1
 c_1_5: y_5 >= 1
 c_1_6: y_6 >= 1
 c_1_7: y_7 >= 1
 c_1_8: y_8 >= 1
 c_1_9: y_9 >= 1
 c_1_10: y_10 >= 1
 c_1_11: y_11 >= 1
 c_1_12: y_12 >= 1
 c_1_13: y_13 >= 1
 c_1_14: y_14 >= 1
 c_1_15: y_15 >= 1
 c_1_16: y_16 >= 1
 c_1_17: y_17 >= 1
 c_1_18: y_18 >= 1
 c_1_19: y_19 >= 1
 c_1_20: y_20 >= 1
 c_1_21: y_21 >= 1
 c_1_22: y_22 >= 1
 c_1_23: y_23 >= 1
 c_1_24: y_24 >= 1
 c_1_25: y_25 >= 1
 c_1_26: y_26 >= 1
 c_1_27: y_27 >= 1
 c_1_28: y_28 >= 1
 c_1_29: y_29 >= 1
 c_1_30: y_30 >= 1
 c_1_31: y_31 >= 1
 c_1_32: y_32 + y_90 >= 1
 c_1_33: y_33 >= 1
 c_1_34: y_34 >= 1
 c_1_35: y_35 >= 1
 c_1_36: y_36 >= 1
 c_1_37: y_37 >= 1
 c_1_38: y_38 >= 1
 c_1_39: y_39 >= 1
 c_1_40: y_40 >= 1
 c_1_41: y_41 >= 1
 c_1_42: y_42 >= 1
 c_1_43: y_43 >= 1
 c_1_44: y_44 >= 1
 c_1_45: y_45 >= 1
 c_1_46: y_46 >= 1
 c_1_47: y_47 >= 1
 c_1_48: y_48 >= 1
 c_1_49: y_49 >= 1
 c_1_50: y_50 >= 1
 c_1_51: y_51 >= 1
 c_1_52: y_52 >= 1
 c_1_53: y_53 >= 1
 c_1_54: y_54 >= 1
 c_1_55: y_55 >= 1
 c_1_56: y_56 >= 1
 c_1_57: y_57 >= 1
 c_1_58: y_58 >= 1
 c_1_59: y_59 >= 1
 c_1_60: y_60 >= 1
 c_1_61: y_61 >= 1
 c_1_62: y_62 >= 1
 c_1_63: y_63 >= 1
 c_1_64: y_64 >= 1
 c_1_65: y_65 >= 1
 c_1_66: y_66 >= 1
 c_1_67: y_67 >= 1
 c_1_68: y_68 >= 1
 c_1_69: y_69 >= 1
 c_1_70: y_70 >= 1
 c_1_71: y_71 >= 1
 c_1_72: y_72 >= 1
 c_1_73: y_73 >= 1
 c_1_74: y_74 >= 1
 c_1_75: y_75 >= 1
 c_1_76: y_76 >= 1
 c_1_77: y_77 >= 1
 c_1_78: y_78 >= 1
 c_1_79: y_79 >= 1
 c_1_80: y_80 >= 1
 c_1_81: y_81 >= 1
 c_1_82: y_82 >= 1
 c_1_83: y_83 >= 1
 c_1_84: y_84 >= 1
 c_1_85: y_85 >= 1
 c_1_86: y_86 >= 1
 c_1_87: y_87 >= 1
 c_1_88: y_88 >= 1
 c_1_89: y_89 >= 1
 c_1_90: y_32 + y_90 >= 1
 c_1_91: y_91 >= 1
 c_1_92: y_92 >= 1
 c_1_93: y_93 >= 1
 c_1_94: y_94 >= 1
 c_1_95: y_95 >= 1
 c_1_96: y_96 >= 1
 c_1_97: y_97 >= 1
 c_1_98: y_98 >= 1
 c_1_99: y_99 >= 1
Bounds
 Constant = 1
Binaries
 y_0 y_1 y_2 y_3 y_4 y_5 y_6 y_7 y_8 y_9 y_10 y_11 y_12 y_13 y_14 y_15 y_16
 y_17 y_18 y_19 y_20 y_21 y_22 y_23 y_24 y_25 y_26 y_27 y_28 y_29 y_30 y_31
 y_32 y_33 y_34 y_35 y_36 y_37 y_38 y_39 y_40 y_41 y_42 y_43 y_44 y_45 y_46
 y_47 y_48 y_49 y_50 y_51 y_52 y_53 y_54 y_55 y_56 y_57 y_58 y_59 y_60 y_61
 y_62 y_63 y_64 y_65 y_66 y_67 y_68 y_69 y_70 y_71 y_72 y_73 y_74 y_75 y_76
 y_77 y_78 y_79 y_80 y_81 y_82 y_83 y_84 y_85 y_86 y_87 y_88 y_89 y_90 y_91
 y_92 y_93 y_94 y_95 y_96 y_97 y_98 y_99
End
